p cnf 1076 1250
c ind 778 779 780 793 800 826 887 888 901 908 0
c ind 912 914 917 933 935 938 950 951 970 972 0
c ind 976 987 988 992 993 994 998 1000 771 886 0
c ind 801 813 772 773 885 776 777 884 1061 1043 0
c ind 1052 1066 1047 1057 1074 1060 1042 1051 1065 1046 0
c ind 1056 1073 1029 1030 1059 1041 1050 1064 1045 1055 0
c ind 1028 1072 1058 1040 1049 1063 1027 1044 1054 1071 0
c ind 1035 1039 1069 1025 1026 1024 1019 1037 1023 1067 0
c ind 1022 1021 1020 1038 1068 1048 1062 1053 1070 1036 0
c ind 1017 1018 774 775 1016 1011 1015 1014 1013 1012 0
c ind 1032 1009 1010 1002 1003 1008 1033 1007 1006 1005 0
c ind 1004 982 983 981 980 979 1001 991 989 990 0
c ind 978 977 999 986 975 997 995 996 984 985 0
c ind 974 973 966 1034 1031 971 969 967 968 965 0
c ind 958 957 964 963 962 961 960 959 956 955 0
c ind 954 953 952 770 945 944 942 943 941 940 0
c ind 946 947 939 937 948 936 949 934 932 930 0
c ind 931 929 928 927 926 925 924 923 921 922 0
c ind 920 919 918 916 915 913 911 909 910 891 0
c ind 907 902 906 903 904 898 905 900 896 897 0
c ind 899 895 890 894 892 893 889 883 876 868 0
c ind 882 881 880 783 879 862 861 860 878 859 0
c ind 877 858 857 856 875 874 873 872 871 870 0
c ind 869 867 866 865 864 863 855 848 840 854 0
c ind 853 852 851 834 833 832 850 831 849 830 0
c ind 829 828 847 846 845 844 843 842 841 839 0
c ind 838 837 836 835 827 825 823 824 814 815 0
c ind 822 821 820 819 818 816 817 810 809 811 0
c ind 812 808 807 806 805 803 804 802 799 798 0
c ind 794 795 796 797 790 792 789 788 791 782 0
c ind 787 781 786 784 785 1 0
c ret 596 597 598 599 600 601 602 603 604 605 0
c ret 606 607 608 609 610 611 612 613 614 615 0
c ret 616 617 618 619 620 621 622 623 624 625 0
c ret 626 627 628 629 630 631 632 633 634 635 0
c ret 636 637 638 639 640 641 642 643 644 645 0
c ret 646 647 648 649 650 651 652 653 654 655 0
c ret 656 657 658 659 660 661 662 663 664 665 0
c ret 666 667 668 669 670 671 672 673 674 675 0
c ret 676 677 678 679 680 681 682 683 684 685 0
c ret 686 687 688 689 690 691 692 693 694 695 0
c ret 696 697 698 699 700 701 702 703 704 705 0
c ret 706 707 708 709 710 711 712 713 714 715 0
c ret 716 717 718 719 720 721 722 723 724 725 0
c ret 726 727 728 729 730 731 732 733 734 291 0
c ret 297 298 299 300 301 302 303 304 305 306 0
c ret 307 308 309 310 311 735 312 736 313 314 0
c ret 737 315 738 316 317 318 319 320 321 322 0
c ret 323 324 325 326 327 328 739 740 329 330 0
c ret 331 741 332 333 742 292 334 335 336 337 0
c ret 338 339 340 341 743 342 343 344 345 346 0
c ret 744 347 745 348 746 349 747 350 351 352 0
c ret 353 354 355 356 357 358 359 360 361 748 0
c ret 362 363 364 365 366 367 749 750 368 369 0
c ret 751 370 752 371 372 373 374 293 375 376 0
c ret 377 378 379 380 381 382 383 384 385 386 0
c ret 387 753 388 754 389 755 390 391 756 392 0
c ret 393 394 395 396 397 398 399 400 401 402 0
c ret 757 403 404 405 758 406 759 407 760 761 0
c ret 408 409 410 411 412 413 414 294 415 416 0
c ret 417 418 419 420 762 763 421 422 423 424 0
c ret 425 764 426 427 428 429 430 431 432 433 0
c ret 434 765 435 436 437 438 439 766 767 440 0
c ret 441 768 442 443 769 444 445 446 447 448 0
c ret 449 450 451 452 453 454 455 456 457 458 0
c ret 459 460 461 462 463 464 465 466 467 468 0
c ret 469 470 471 472 473 474 475 476 477 478 0
c ret 479 480 481 482 483 484 485 295 486 487 0
c ret 488 489 490 491 492 493 494 495 496 497 0
c ret 498 499 500 501 502 503 504 505 506 507 0
c ret 508 509 510 511 512 513 514 515 516 517 0
c ret 518 519 520 521 522 523 524 296 525 526 0
c ret 527 528 529 530 531 532 533 534 535 536 0
c ret 537 538 539 540 541 542 543 544 545 546 0
c ret 547 548 549 550 551 552 553 554 555 556 0
c ret 557 558 559 560 561 562 563 564 565 566 0
c ret 567 568 569 570 571 572 573 574 575 576 0
c ret 577 578 579 580 581 582 583 584 585 586 0
c ret 587 588 589 590 591 592 593 594 595 0
2 3 -285 -289 0
2 124 -285 -289 0
-2 289 0
-2 285 0
-2 -3 -124 0
3 -4 -52 114 0
3 4 52 -104 0
3 4 52 114 0
3 -4 -52 -104 0
-3 4 -52 0
-3 -4 52 0
-3 104 -114 0
4 5 -11 0
4 5 48 0
-4 -5 0
-4 11 -48 0
5 -6 -7 0
5 -7 -10 0
-5 7 0
-5 6 10 0
6 1002 0
6 -1003 -1009 0
6 1003 -1010 0
-6 -1002 1003 1010 0
-6 -1002 -1003 1009 0
7 -8 -9 0
-6 7 -9 0
-7 9 0
6 -7 8 0
-6 8 0
8 1011 -1018 0
8 -1011 -1017 0
6 -8 -1011 1017 0
6 -8 1011 1018 0
9 1002 0
9 -1003 1009 0
9 1003 1010 0
-9 -1002 1003 -1010 0
-9 -1002 -1003 -1009 0
-6 10 0
10 -1011 1017 0
10 1011 1018 0
6 -10 -1011 -1017 0
6 -10 1011 -1018 0
11 -12 -47 -1052 0
11 12 -13 -47 0
-11 47 0
-11 -12 1052 0
-11 12 13 0
12 997 -999 0
-12 -997 0
-12 999 0
13 -14 -1051 0
13 14 -15 0
-13 -14 1051 0
-13 14 15 0
14 969 -971 0
-14 -969 0
-14 971 0
15 16 39 46 0
15 16 39 -42 0
-15 -16 0
-15 -39 0
-15 42 -46 0
16 -37 770 -945 0
16 17 770 945 0
-16 -770 0
-16 37 -945 0
-16 -17 945 0
17 -18 -1048 0
-17 1048 0
-17 18 0
18 -19 33 0
-18 19 0
-18 -33 0
19 -26 27 0
19 20 27 -835 0
-19 -27 0
-19 -20 26 0
-19 26 835 0
20 21 0
20 24 -834 0
20 24 840 0
-20 -21 -24 0
-20 -21 834 -840 0
21 -22 23 -828 -835 0
-21 22 0
-21 -23 0
-21 828 0
-21 835 0
22 829 830 831 0
-22 -829 0
-22 -831 0
-22 -830 0
23 832 -833 0
-23 -832 0
-23 833 0
24 25 834 840 -841 0
-24 -834 0
-24 -25 0
-24 841 0
-24 -840 0
25 848 849 0
-25 -848 0
-25 -849 0
22 26 -828 0
23 26 -828 -834 0
-26 828 0
-22 -26 834 0
-22 -23 -26 0
27 29 32 0
27 29 -31 0
27 28 29 0
-27 -29 0
-27 -28 31 -32 0
28 857 858 859 0
-28 -857 0
-28 -859 0
-28 -858 0
28 29 -856 0
29 30 -856 -862 0
-29 856 0
-28 -29 862 0
-28 -29 -30 0
30 860 -861 0
-30 -860 0
-30 861 0
31 868 869 0
31 868 876 877 0
-31 -868 0
-31 -869 -876 0
-31 -869 -877 0
30 32 -856 862 -863 0
-32 863 0
-30 -32 0
-32 856 0
-32 -862 0
33 -34 -802 0
33 -36 -802 0
33 -35 -802 0
-33 802 0
-33 34 35 36 0
34 -803 804 805 0
-34 803 0
-34 -805 0
-34 -804 0
35 808 811 812 0
-35 -808 0
-35 -812 0
-35 -811 0
36 -808 809 810 0
-36 808 0
-36 -810 0
-36 -809 0
37 -38 1049 0
17 37 38 0
-37 -38 -1049 0
-17 -37 38 0
38 911 -913 0
-38 -911 0
-38 913 0
39 -40 -41 -955 0
39 -40 -41 -956 0
-39 41 0
-39 40 0
-39 955 956 0
40 958 959 960 961 0
-40 -961 0
-40 -960 0
-40 -958 0
-40 -959 0
41 -952 -953 -954 957 0
-41 954 0
-41 -957 0
-41 952 0
-41 953 0
37 42 -43 0
-37 -42 0
-42 43 0
43 44 45 0
-43 -44 0
-43 -45 0
44 924 925 926 0
-44 -924 0
-44 -926 0
-44 -925 0
45 932 -934 0
-45 -932 0
-45 934 0
45 46 -770 0
46 -770 1050 0
-46 770 0
-45 -46 -1050 0
47 -966 973 0
-47 966 0
-47 -973 0
48 49 -966 0
13 15 48 0
15 48 49 0
13 48 -966 0
-15 -48 966 0
-13 -48 -49 0
49 51 -966 -973 0
49 50 -966 -973 0
-49 966 0
-49 973 0
-49 -50 -51 0
50 977 -978 -979 980 0
-50 -977 0
-50 -980 0
-50 979 0
-50 978 0
51 -974 975 0
-51 974 0
-51 -975 0
52 -53 -61 0
52 -53 100 0
-52 53 0
-52 61 -100 0
53 -54 57 0
53 -54 56 60 0
-53 54 0
-53 -56 -57 0
-53 -57 -60 0
54 -55 -552 -581 0
-54 552 0
-54 581 0
-54 55 0
55 -610 -639 -668 -697 0
-55 697 0
-55 610 0
-55 668 0
-55 639 0
56 523 0
56 -524 -530 0
56 524 -531 0
-56 -523 524 531 0
-56 -523 -524 530 0
57 -58 59 0
-57 58 0
-57 -59 0
58 523 0
58 -524 530 0
58 524 531 0
-58 -523 524 -531 0
-58 -523 -524 -530 0
56 59 -532 538 0
56 59 532 539 0
-56 -59 0
-59 532 -539 0
-59 -532 -538 0
-56 60 0
60 -532 538 0
60 532 539 0
56 -60 -532 -538 0
56 -60 532 -539 0
61 -62 -99 -747 0
61 62 -63 -99 0
-61 99 0
-61 -62 747 0
-61 62 63 0
62 518 -520 0
-62 -518 0
-62 520 0
63 -64 -746 0
63 64 -65 0
-63 -64 746 0
-63 64 65 0
64 490 -492 0
-64 -490 0
-64 492 0
65 66 91 98 0
65 66 91 -94 0
-65 -66 0
-65 -91 0
-65 94 -98 0
66 -89 291 -466 0
66 67 291 466 0
-66 -291 0
-66 89 -466 0
-66 -67 466 0
67 -68 -743 0
-67 743 0
-67 68 0
68 69 -73 0
-68 -69 0
-68 73 0
69 -70 -323 0
69 -72 -323 0
69 -71 -323 0
-69 323 0
-69 70 71 72 0
70 -324 325 326 0
-70 324 0
-70 -326 0
-70 -325 0
71 329 332 333 0
-71 -329 0
-71 -333 0
-71 -332 0
72 -329 330 331 0
-72 329 0
-72 -331 0
-72 -330 0
73 74 -81 0
73 74 84 -356 0
-73 -74 0
-73 81 -84 0
-73 81 356 0
74 -75 78 0
74 78 377 0
-74 -78 0
-74 75 -377 0
75 -77 380 383 0
75 -76 -77 380 0
-75 -380 0
-75 77 0
-75 76 -383 0
76 381 -382 0
-76 -381 0
-76 382 0
77 378 379 0
-77 -378 0
-77 -379 0
76 -77 78 79 -80 0
77 -78 0
-78 -79 0
-76 -78 0
-78 80 0
79 389 390 0
79 389 397 398 0
-79 -389 0
-79 -390 -397 0
-79 -390 -398 0
80 -377 380 383 -384 0
-80 384 0
-80 -383 0
-80 377 0
-80 -380 0
81 82 -349 0
81 83 -349 -355 0
-81 349 0
-81 -82 355 0
-81 -82 -83 0
82 350 351 352 0
-82 -350 0
-82 -352 0
-82 -351 0
83 353 -354 0
-83 -353 0
-83 354 0
84 85 87 0
-84 -85 0
-84 -87 0
85 -86 355 -361 0
-85 86 0
-85 361 0
-85 -355 0
-82 83 86 -349 -356 0
82 -86 0
-83 -86 0
-86 349 0
-86 356 0
-86 87 -88 -369 0
-86 87 -88 -370 0
-87 88 0
86 -87 0
-87 369 370 0
88 355 361 -362 0
-88 362 0
-88 -361 0
-88 -355 0
89 -90 744 0
67 89 90 0
-89 -90 -744 0
-67 -89 90 0
90 432 -434 0
-90 -432 0
-90 434 0
91 -92 -93 -476 0
91 -92 -93 -477 0
-91 93 0
-91 92 0
-91 476 477 0
92 479 480 481 482 0
-92 -482 0
-92 -481 0
-92 -479 0
-92 -480 0
93 -473 -474 -475 478 0
-93 475 0
-93 -478 0
-93 473 0
-93 474 0
89 94 -95 0
-89 -94 0
-94 95 0
95 96 97 0
-95 -96 0
-95 -97 0
96 445 446 447 0
-96 -445 0
-96 -447 0
-96 -446 0
97 453 -455 0
-97 -453 0
-97 455 0
97 98 -291 0
98 -291 745 0
-98 291 0
-97 -98 -745 0
99 -487 494 0
-99 487 0
-99 -494 0
100 101 -487 0
63 65 100 0
65 100 101 0
63 100 -487 0
-65 -100 487 0
-63 -100 -101 0
101 103 -487 -494 0
101 102 -487 -494 0
-101 487 0
-101 494 0
-101 -102 -103 0
102 -495 496 0
-102 495 0
-102 -496 0
103 498 -499 -500 501 0
-103 -498 0
-103 -501 0
-103 500 0
-103 499 0
5 104 -105 0
5 104 113 0
-5 -104 0
-104 105 -113 0
12 -47 105 -106 0
-12 -47 105 -1074 0
47 -105 0
12 -105 106 0
-12 -105 1074 0
-14 106 -1073 0
14 106 -107 0
-14 -106 1073 0
14 -106 107 0
39 107 108 112 0
39 107 108 -111 0
-39 -107 0
-107 -108 0
-107 111 -112 0
108 -110 770 -945 0
108 109 770 945 0
-108 -770 0
-108 110 -945 0
-108 -109 945 0
-18 109 -1070 0
-109 1070 0
18 -109 0
-38 110 1071 0
38 109 110 0
-38 -110 -1071 0
38 -109 -110 0
-43 110 111 0
43 -111 0
-110 -111 0
45 112 -770 0
112 -770 1072 0
-112 770 0
-45 -112 -1072 0
106 113 -966 0
49 107 113 0
106 107 113 0
49 113 -966 0
-49 -106 -113 0
-107 -113 966 0
-53 114 -115 0
-53 114 123 0
53 -114 0
-114 115 -123 0
62 -99 115 -116 0
-62 -99 115 -769 0
99 -115 0
62 -115 116 0
-62 -115 769 0
-64 116 -768 0
64 116 -117 0
-64 -116 768 0
64 -116 117 0
91 117 118 122 0
91 117 118 -121 0
-91 -117 0
-117 -118 0
-117 121 -122 0
118 -120 291 -466 0
118 119 291 466 0
-118 -291 0
-118 120 -466 0
-118 -119 466 0
-68 119 -765 0
-119 765 0
68 -119 0
-90 120 766 0
90 119 120 0
-90 -120 -766 0
90 -119 -120 0
-95 120 121 0
95 -121 0
-120 -121 0
97 122 -291 0
122 -291 767 0
-122 291 0
-97 -122 -767 0
116 123 -487 0
101 117 123 0
116 117 123 0
101 123 -487 0
-101 -116 -123 0
-117 -123 487 0
124 125 134 -143 -264 0
124 -125 -134 -143 -264 0
-124 264 0
-124 -125 134 0
-124 143 0
-124 125 -134 0
5 125 -126 0
5 125 133 0
-5 -125 0
-125 126 -133 0
12 -47 126 -127 0
-12 -47 126 -1047 0
47 -126 0
12 -126 127 0
-12 -126 1047 0
-14 127 -1046 0
14 127 -128 0
-14 -127 1046 0
14 -127 128 0
39 128 129 132 0
39 128 129 -131 0
-39 -128 0
-128 -129 0
-128 131 -132 0
129 -130 770 -945 0
18 129 770 945 0
-129 -770 0
-129 130 -945 0
-18 -129 945 0
-38 130 1044 0
18 38 130 0
-38 -130 -1044 0
-18 38 -130 0
-43 130 131 0
43 -131 0
-130 -131 0
45 132 -770 0
132 -770 1045 0
-132 770 0
-45 -132 -1045 0
127 133 -966 0
49 128 133 0
127 128 133 0
49 133 -966 0
-49 -127 -133 0
-128 -133 966 0
-53 134 -135 0
-53 134 142 0
53 -134 0
-134 135 -142 0
62 -99 135 -136 0
-62 -99 135 -742 0
99 -135 0
62 -135 136 0
-62 -135 742 0
-64 136 -741 0
64 136 -137 0
-64 -136 741 0
64 -136 137 0
91 137 138 141 0
91 137 138 -140 0
-91 -137 0
-137 -138 0
-137 140 -141 0
138 -139 291 -466 0
68 138 291 466 0
-138 -291 0
-138 139 -466 0
-68 -138 466 0
-90 139 739 0
68 90 139 0
-90 -139 -739 0
-68 90 -139 0
-95 139 140 0
95 -140 0
-139 -140 0
97 141 -291 0
141 -291 740 0
-141 291 0
-97 -141 -740 0
136 142 -487 0
101 137 142 0
136 137 142 0
101 142 -487 0
-101 -136 -142 0
-137 -142 487 0
143 -144 -192 -243 -253 0
143 -144 -192 243 253 0
-143 192 0
-143 243 -253 0
-143 144 0
-143 -243 253 0
144 -145 -160 183 0
144 145 160 -174 0
144 145 160 183 0
144 -145 -160 -174 0
-144 145 -160 0
-144 -145 160 0
-144 174 -183 0
5 145 -158 0
5 145 -157 0
5 145 -146 0
-5 -145 0
-145 146 157 158 0
146 149 -150 0
-43 146 147 -150 0
-146 150 0
-146 -147 -149 0
43 -146 -149 0
-38 147 1063 0
38 147 148 0
-38 -147 -1063 0
38 -147 -148 0
-18 148 -1062 0
-148 1062 0
18 -148 0
45 149 -770 0
149 -770 1064 0
-149 770 0
-45 -149 -1064 0
150 -151 156 0
-150 151 0
-150 -156 0
39 151 152 0
-39 -151 0
-151 -152 0
-14 152 -966 0
152 -153 -966 0
-152 966 0
14 -152 153 0
-12 153 154 973 0
-51 153 154 -973 0
-153 -154 0
51 -153 -973 0
12 -153 973 0
50 154 -155 0
-50 -154 0
-154 155 0
155 -966 -973 -974 975 0
-155 974 0
-155 -975 0
-155 966 0
-155 973 0
-147 156 770 -945 0
148 156 770 945 0
-156 -770 0
147 -156 -945 0
-148 -156 945 0
-12 -47 157 -1066 0
-157 1066 0
12 -157 0
47 -157 0
-14 158 -159 -1065 0
-158 1065 0
14 -158 0
-158 159 0
153 159 -966 0
-159 966 0
-153 -159 0
-53 160 -161 0
-53 160 -172 0
-53 160 -171 0
53 -160 0
-160 161 171 172 0
161 164 -165 0
-95 161 162 -165 0
-161 165 0
-161 -162 -164 0
95 -161 -164 0
-90 162 758 0
90 162 163 0
-90 -162 -758 0
90 -162 -163 0
-68 163 -757 0
-163 757 0
68 -163 0
97 164 -291 0
164 -291 759 0
-164 291 0
-97 -164 -759 0
165 -166 170 0
-165 166 0
-165 -170 0
91 166 167 0
-91 -166 0
-166 -167 0
-64 167 -487 0
167 -168 -487 0
-167 487 0
64 -167 168 0
-62 168 169 494 0
-102 168 169 -494 0
-168 -169 0
102 -168 -494 0
62 -168 494 0
-102 103 169 -487 -494 0
102 -169 0
-103 -169 0
-169 487 0
-169 494 0
-162 170 291 -466 0
163 170 291 466 0
-170 -291 0
162 -170 -466 0
-163 -170 466 0
-62 -99 171 -761 0
-171 761 0
62 -171 0
99 -171 0
-64 172 -173 -760 0
-172 760 0
64 -172 0
-172 173 0
168 173 -487 0
-173 487 0
-168 -173 0
5 174 -182 0
5 174 -181 0
5 174 -175 0
-5 -174 0
-174 175 181 182 0
175 178 -179 0
-43 175 176 -179 0
-175 179 0
-175 -176 -178 0
43 -175 -178 0
-38 176 1054 0
38 176 177 0
-38 -176 -1054 0
38 -176 -177 0
-18 177 -1053 0
-177 1053 0
18 -177 0
45 178 -770 0
178 -770 1055 0
-178 770 0
-45 -178 -1055 0
-151 179 180 0
151 -179 0
-179 -180 0
-176 180 770 -945 0
177 180 770 945 0
-180 -770 0
176 -180 -945 0
-177 -180 945 0
-12 -47 181 -1057 0
-181 1057 0
12 -181 0
47 -181 0
-14 -159 182 -1056 0
-182 1056 0
14 -182 0
159 -182 0
-54 183 190 -523 0
-54 183 -184 -523 0
-183 523 0
54 -183 0
-183 184 -190 0
184 187 -188 0
-95 184 185 -188 0
-184 188 0
-184 -185 -187 0
95 -184 -187 0
-90 185 749 0
90 185 186 0
-90 -185 -749 0
90 -185 -186 0
-68 186 -748 0
-186 748 0
68 -186 0
97 187 -291 0
187 -291 750 0
-187 291 0
-97 -187 -750 0
-166 188 189 0
166 -188 0
-188 -189 0
-185 189 291 -466 0
186 189 291 466 0
-189 -291 0
185 -189 -466 0
-186 -189 466 0
62 190 191 0
99 190 191 0
190 191 752 0
-190 -191 0
-62 -99 -190 -752 0
-64 -173 191 -751 0
-191 751 0
64 -191 0
173 -191 0
192 193 194 204 -216 0
192 193 -194 -204 -216 0
-192 216 0
-192 -194 204 0
-192 -193 0
-192 194 -204 0
-174 183 193 0
174 -193 0
-183 -193 0
194 195 -202 770 0
194 195 -201 -202 0
-194 202 0
-194 -195 0
-194 201 -770 0
195 196 200 0
195 198 200 0
195 196 -198 770 0
-195 -196 -198 0
-195 198 -200 0
-195 -200 -770 0
-19 196 -1031 0
-19 33 196 197 0
19 -196 0
-196 -197 1031 0
-33 -196 1031 0
197 781 1068 0
-197 -781 0
-197 -1068 0
198 -199 945 946 949 0
-198 199 0
-198 -949 0
-198 -945 0
-198 -946 0
199 947 948 0
-199 -947 0
-199 -948 0
200 889 -1069 0
-196 200 -889 0
196 -200 -889 0
-200 889 1069 0
44 -200 201 0
-44 -201 0
200 -201 0
7 202 -203 0
10 202 -203 -1002 0
-202 203 0
-7 -10 -202 0
-7 -202 1002 0
39 155 203 0
39 50 203 0
-39 -203 0
-50 -155 -203 0
204 -208 291 0
96 204 -205 -208 0
-204 208 0
-204 205 -291 0
-96 -204 -291 0
205 410 -764 0
205 -206 -410 0
-205 206 -410 0
-205 410 764 0
-73 206 -726 0
69 -73 206 207 0
73 -206 0
-206 -207 726 0
-69 -206 726 0
207 302 763 0
-207 -302 0
-207 -763 0
208 209 -212 0
-208 -209 0
-208 212 0
205 209 210 0
205 206 209 0
206 209 -210 291 0
-205 -209 210 0
-206 -209 -210 0
-205 -209 -291 0
210 -211 466 467 470 0
-210 211 0
-210 -470 0
-210 -466 0
-210 -467 0
211 468 469 0
-211 -468 0
-211 -469 0
-54 212 -213 0
54 -212 0
-212 213 0
57 213 -214 0
60 213 -214 -523 0
-213 214 0
-57 -60 -213 0
-57 -213 523 0
91 214 215 0
91 103 214 0
91 214 487 0
-91 -214 0
-103 -214 -215 -487 0
-102 215 -494 0
-215 494 0
102 -215 0
216 -217 -225 -233 0
216 217 225 -233 0
-216 233 0
-216 -217 225 0
-216 217 -225 0
-202 217 218 0
202 -217 0
-217 -218 0
198 218 -219 0
218 223 224 0
218 -219 223 0
-218 219 -224 0
-198 -218 -223 0
-218 219 -223 0
219 220 -889 0
-19 219 -222 889 0
-219 -220 -889 0
19 -219 889 0
-219 222 889 0
-19 220 -221 0
19 -220 0
-220 221 0
221 -1031 -1033 0
33 221 1031 0
221 -1031 -1037 0
-33 -221 1031 0
-221 -1031 1033 1037 0
222 -1031 1033 1039 0
-222 1031 0
-222 -1039 0
-222 -1033 0
198 223 770 0
-220 223 770 0
-223 -770 0
-198 220 -223 0
44 224 -770 0
-224 770 0
-44 -224 0
-212 225 226 0
212 -225 0
-225 -226 0
210 226 -227 0
226 231 232 0
226 -227 231 0
-226 227 -232 0
-210 -226 -231 0
-226 227 -231 0
227 228 -410 0
-73 227 -230 410 0
-227 -228 -410 0
73 -227 410 0
-227 230 410 0
-73 228 -229 0
73 -228 0
-228 229 0
229 -726 -728 0
69 229 726 0
229 -726 -732 0
-69 -229 726 0
-229 -726 728 732 0
230 -726 728 734 0
-230 726 0
-230 -734 0
-230 -728 0
210 231 291 0
-228 231 291 0
-231 -291 0
-210 228 -231 0
96 232 -291 0
-232 291 0
-96 -232 0
233 234 236 239 -240 0
233 -234 -236 239 -240 0
-233 -239 0
-233 234 -236 0
-233 240 0
-233 -234 236 0
-54 -73 -213 234 -235 0
-234 235 0
54 -234 0
213 -234 0
73 -234 0
235 291 -726 728 0
96 235 -726 728 0
-235 726 0
-235 -728 0
-96 -235 -291 0
-19 -202 236 -237 238 0
-236 237 0
-236 -238 0
19 -236 0
202 -236 0
237 -1031 1033 0
-237 1031 0
-237 -1033 0
-44 238 -770 0
-238 770 0
44 -238 0
-8 -9 -10 239 0
8 -239 0
9 -239 0
10 -239 0
20 27 240 -241 0
-26 27 240 -241 0
-240 241 0
-27 -240 0
-20 26 -240 0
33 -203 238 241 -242 0
203 -241 0
-238 -241 0
-33 -241 0
-241 242 0
242 -773 -774 0
242 -772 775 0
242 -772 -774 0
242 -773 775 0
-242 774 -775 0
-242 772 773 0
5 243 244 252 0
5 152 243 244 0
-5 -243 0
-243 -244 0
-152 -243 -252 0
244 246 966 0
14 244 245 246 0
-244 -246 0
-244 -245 -966 0
-14 -244 -966 0
-12 245 973 -1061 0
12 -245 0
-245 1061 0
-245 -973 0
39 246 247 251 0
39 246 247 -250 0
-39 -246 0
-246 -247 0
-246 250 -251 0
247 -249 770 -945 0
247 248 770 945 0
-247 -770 0
-247 249 -945 0
-247 -248 945 0
-18 248 -774 0
-248 774 0
18 -248 0
-38 249 1058 0
38 248 249 0
-38 -249 -1058 0
38 -248 -249 0
-43 249 250 0
43 -250 0
-249 -250 0
45 251 -770 0
251 -770 1059 0
-251 770 0
-45 -251 -1059 0
-153 245 252 0
245 252 1060 0
-245 -252 0
153 -252 -1060 0
-53 167 253 254 0
-53 253 254 263 0
53 -253 0
-253 -254 0
-167 -253 -263 0
254 -256 257 0
64 254 255 257 0
-254 -257 0
-254 -255 256 0
-64 -254 256 0
-62 255 494 -756 0
62 -255 0
-255 756 0
-255 -494 0
64 256 487 0
256 487 755 0
169 256 487 0
-256 -487 0
-64 -169 -256 -755 0
91 257 258 262 0
91 257 258 -261 0
-91 -257 0
-257 -258 0
-257 261 -262 0
258 -260 291 -466 0
258 259 291 466 0
-258 -291 0
-258 260 -466 0
-258 -259 466 0
-68 259 -295 0
-259 295 0
68 -259 0
-90 260 753 0
90 259 260 0
-90 -260 -753 0
90 -259 -260 0
-95 260 261 0
95 -261 0
-260 -261 0
97 262 -291 0
262 -291 754 0
-262 291 0
-97 -262 -754 0
-168 255 263 0
255 263 755 0
-255 -263 0
168 -263 -755 0
104 264 -265 -275 0
-114 264 265 275 0
104 264 265 275 0
-114 264 -265 -275 0
-264 265 -275 0
-264 -265 275 0
-104 114 -264 0
5 265 -266 0
5 265 274 0
-5 -265 0
-265 266 -274 0
12 -47 266 -267 0
-12 -47 266 -1043 0
47 -266 0
12 -266 267 0
-12 -266 1043 0
-14 267 -1042 0
14 267 -268 0
-14 -267 1042 0
14 -267 268 0
39 268 269 273 0
39 268 269 -272 0
-39 -268 0
-268 -269 0
-268 272 -273 0
269 270 -770 1041 0
45 269 270 -770 0
-269 770 0
-269 -270 0
-45 -269 -1041 0
-43 270 271 0
43 -270 0
-270 -271 0
18 38 271 0
-38 271 1040 0
38 271 775 0
-38 -271 -1040 0
-18 38 -271 -775 0
-18 38 272 -775 0
-18 272 -775 945 0
18 -272 0
-272 775 0
-38 -272 -945 0
273 770 1040 0
273 770 945 0
38 273 770 0
-273 -770 0
-38 -273 -945 -1040 0
267 274 -966 0
49 268 274 0
267 268 274 0
49 274 -966 0
-49 -267 -274 0
-268 -274 966 0
-53 275 -276 0
-53 275 284 0
53 -275 0
-275 276 -284 0
62 -99 276 -277 0
-62 -99 276 -738 0
99 -276 0
62 -276 277 0
-62 -276 738 0
-64 277 -737 0
64 277 -278 0
-64 -277 737 0
64 -277 278 0
91 278 279 283 0
91 278 279 -282 0
-91 -278 0
-278 -279 0
-278 282 -283 0
279 280 -291 736 0
97 279 280 -291 0
-279 291 0
-279 -280 0
-97 -279 -736 0
-95 280 281 0
95 -280 0
-280 -281 0
68 90 281 0
-90 281 735 0
90 281 296 0
-90 -281 -735 0
-68 90 -281 -296 0
-68 90 282 -296 0
-68 282 -296 466 0
68 -282 0
-282 296 0
-90 -282 -466 0
283 291 735 0
283 291 466 0
90 283 291 0
-283 -291 0
-90 -283 -466 -735 0
277 284 -487 0
101 278 284 0
277 278 284 0
101 284 -487 0
-101 -277 -284 0
-278 -284 487 0
69 74 -214 285 -286 0
-69 -285 0
-285 286 0
214 -285 0
-74 -285 0
-55 286 -287 291 0
-55 96 286 -287 0
-286 287 0
55 -286 0
-96 -286 -291 0
287 -288 -295 0
287 -288 296 0
-287 288 0
-287 295 -296 0
288 -293 -552 -581 0
288 -294 -552 -581 0
-288 581 0
-288 552 0
-288 293 294 0
58 289 290 0
56 289 290 0
-289 -290 0
-56 -58 -289 0
81 85 87 290 0
-81 -290 0
-87 -290 0
-85 -290 0
1 2 0
-1 -2 0
1075 0

